; DUP1 CALLER SWAP1 POP DUP1 => CALLER CALLER
(set-option :produce-proofs true)
; 
(set-info :status unknown)
(declare-fun storage_t ((_ BitVec 256) (_ BitVec 256) Int (_ BitVec 256)) (_ BitVec 256))
(declare-fun storage_s ((_ BitVec 256) (_ BitVec 256) Int (_ BitVec 256)) (_ BitVec 256))
(declare-fun exc_halt_t (Int) Bool)
(declare-fun exc_halt_s (Int) Bool)
(declare-fun sc_t (Int) (_ BitVec 6))
(declare-fun stack_t ((_ BitVec 256) (_ BitVec 256) Int (_ BitVec 6)) (_ BitVec 256))
(declare-fun stack_s ((_ BitVec 256) (_ BitVec 256) Int (_ BitVec 6)) (_ BitVec 256))
(declare-fun sc_s (Int) (_ BitVec 6))
(declare-fun used_gas_t ((_ BitVec 256) (_ BitVec 256) Int) Int)
(declare-fun used_gas_s ((_ BitVec 256) (_ BitVec 256) Int) Int)
(assert
 (exists ((x_0 (_ BitVec 256)) (x_CALLER (_ BitVec 256)) )(let (($x10003 (forall ((w (_ BitVec 256)) )(let ((?x1284 (storage_t x_0 x_CALLER 2 w)))
 (let ((?x1762 (storage_s x_0 x_CALLER 5 w)))
 (= ?x1762 ?x1284))))
 ))
 (let (($x8115 (exc_halt_t 2)))
 (let (($x11317 (exc_halt_s 5)))
 (let (($x9465 (= $x11317 $x8115)))
 (let (($x10367 (forall ((n (_ BitVec 6)) )(let ((?x9148 (stack_t x_0 x_CALLER 2 n)))
 (let ((?x9334 (stack_s x_0 x_CALLER 5 n)))
 (let (($x4935 (= ?x9334 ?x9148)))
 (or $x4935 (bvsle (sc_t 2) n))))))
 ))
 (let ((?x6158 (sc_t 2)))
 (let ((?x4319 (sc_s 5)))
 (let (($x7598 (= ?x4319 ?x6158)))
 (let ((?x5103 (used_gas_t x_0 x_CALLER 0)))
 (let ((?x9021 (used_gas_s x_0 x_CALLER 0)))
 (let (($x9847 (= ?x9021 ?x5103)))
 (let (($x1767 (forall ((w (_ BitVec 256)) )(let ((?x11251 (storage_t x_0 x_CALLER 0 w)))
 (let ((?x10188 (storage_s x_0 x_CALLER 0 w)))
 (= ?x10188 ?x11251))))
 ))
 (let (($x56 (exc_halt_t 0)))
 (let (($x57 (exc_halt_s 0)))
 (let (($x58 (= $x57 $x56)))
 (let (($x2218 (forall ((n (_ BitVec 6)) )(let ((?x63 (sc_t 0)))
 (let (($x11489 (bvsle ?x63 n)))
 (let ((?x5181 (stack_t x_0 x_CALLER 0 n)))
 (let ((?x11182 (stack_s x_0 x_CALLER 0 n)))
 (let (($x1859 (= ?x11182 ?x5181)))
 (or $x1859 $x11489)))))))
 ))
 (let ((?x63 (sc_t 0)))
 (let ((?x72 (sc_s 0)))
 (let (($x73 (= ?x72 ?x63)))
 (let (($x8377 (exc_halt_t 1)))
 (let (($x2723 (or $x8377 (not (= ((_ extract 6 6) (bvadd (_ bv1 7) (concat (_ bv0 1) (sc_t 1)))) (_ bv0 1))))))
 (let (($x10194 (forall ((w (_ BitVec 256)) )(let ((?x1036 (storage_t x_0 x_CALLER 1 w)))
 (let ((?x1284 (storage_t x_0 x_CALLER 2 w)))
 (= ?x1284 ?x1036))))
 ))
 (let (($x11481 (forall ((n (_ BitVec 6)) )(let ((?x7154 (sc_t 1)))
 (let (($x3342 (bvsle ?x7154 n)))
 (or (= (stack_t x_0 x_CALLER 2 n) (stack_t x_0 x_CALLER 1 n)) $x3342))))
 ))
 (let (($x6503 (= (used_gas_t x_0 x_CALLER 2) (+ 2 (used_gas_t x_0 x_CALLER 1)))))
 (let (($x6488 (= $x8377 (or $x56 (not (= ((_ extract 6 6) (bvadd (_ bv1 7) (concat (_ bv0 1) ?x63))) (_ bv0 1)))))))
 (let (($x6109 (forall ((w (_ BitVec 256)) )(let ((?x11251 (storage_t x_0 x_CALLER 0 w)))
 (let ((?x1036 (storage_t x_0 x_CALLER 1 w)))
 (= ?x1036 ?x11251))))
 ))
 (let (($x2604 (forall ((n (_ BitVec 6)) )(let ((?x63 (sc_t 0)))
 (let (($x11489 (bvsle ?x63 n)))
 (or (= (stack_t x_0 x_CALLER 1 n) (stack_t x_0 x_CALLER 0 n)) $x11489))))
 ))
 (let ((?x7154 (sc_t 1)))
 (let (($x10389 (= ?x7154 (bvadd (_ bv1 6) ?x63))))
 (let (($x7172 (exc_halt_s 4)))
 (let (($x8049 (or (not (= ((_ extract 6 6) (bvadd (_ bv1 7) (concat (_ bv0 1) (sc_s 4)))) (_ bv0 1))) $x7172 (not (bvsle (_ bv0 6) (bvadd (_ bv63 6) (sc_s 4)))))))
 (let (($x8239 (forall ((w (_ BitVec 256)) )(let ((?x5202 (storage_s x_0 x_CALLER 4 w)))
 (let ((?x1762 (storage_s x_0 x_CALLER 5 w)))
 (= ?x1762 ?x5202))))
 ))
 (let (($x736 (forall ((n (_ BitVec 6)) )(or (= (stack_s x_0 x_CALLER 5 n) (stack_s x_0 x_CALLER 4 n)) (bvsle (bvadd (_ bv63 6) (sc_s 4)) n)))
 ))
 (let (($x11052 (= (used_gas_s x_0 x_CALLER 5) (+ 3 (used_gas_s x_0 x_CALLER 4)))))
 (let ((?x4305 (sc_s 4)))
 (let ((?x2899 (bvadd (_ bv63 6) ?x4305)))
 (let ((?x7438 (stack_s x_0 x_CALLER 4 ?x2899)))
 (let (($x11438 (= $x7172 (or (exc_halt_s 3) (not (bvsle (_ bv0 6) (bvadd (_ bv63 6) (sc_s 3))))))))
 (let (($x5835 (forall ((w (_ BitVec 256)) )(let ((?x1549 (storage_s x_0 x_CALLER 3 w)))
 (let ((?x5202 (storage_s x_0 x_CALLER 4 w)))
 (= ?x5202 ?x1549))))
 ))
 (let (($x7422 (forall ((n (_ BitVec 6)) )(let ((?x275 (sc_s 3)))
 (let ((?x7749 (bvadd (_ bv63 6) ?x275)))
 (let (($x1218 (bvsle ?x7749 n)))
 (or $x1218 (= (stack_s x_0 x_CALLER 4 n) (stack_s x_0 x_CALLER 3 n)))))))
 ))
 (let ((?x6826 (used_gas_s x_0 x_CALLER 4)))
 (let (($x292 (exc_halt_s 3)))
 (let (($x9290 (= $x292 (or (exc_halt_s 2) (not (bvsle (_ bv0 6) (bvadd (_ bv62 6) (sc_s 2))))))))
 (let (($x6818 (forall ((w (_ BitVec 256)) )(let ((?x9432 (storage_s x_0 x_CALLER 2 w)))
 (let ((?x1549 (storage_s x_0 x_CALLER 3 w)))
 (= ?x1549 ?x9432))))
 ))
 (let (($x3692 (forall ((n (_ BitVec 6)) )(let ((?x218 (sc_s 2)))
 (let ((?x1898 (bvadd (_ bv62 6) ?x218)))
 (let (($x10861 (bvsle ?x1898 n)))
 (or (= (stack_s x_0 x_CALLER 3 n) (stack_s x_0 x_CALLER 2 n)) $x10861)))))
 ))
 (let ((?x5436 (used_gas_s x_0 x_CALLER 3)))
 (let (($x850 (= (stack_s x_0 x_CALLER 3 (bvadd (_ bv62 6) (sc_s 3))) (stack_s x_0 x_CALLER 2 (bvadd (_ bv63 6) (sc_s 2))))))
 (let (($x4709 (= (stack_s x_0 x_CALLER 3 (bvadd (_ bv63 6) (sc_s 3))) (stack_s x_0 x_CALLER 2 (bvadd (_ bv62 6) (sc_s 2))))))
 (let (($x2257 (not (= ((_ extract 6 6) (bvadd (_ bv1 7) (concat (_ bv0 1) (sc_s 1)))) (_ bv0 1)))))
 (let (($x189 (exc_halt_s 1)))
 (let (($x247 (exc_halt_s 2)))
 (let (($x6397 (forall ((w (_ BitVec 256)) )(let ((?x10998 (storage_s x_0 x_CALLER 1 w)))
 (let ((?x9432 (storage_s x_0 x_CALLER 2 w)))
 (= ?x9432 ?x10998))))
 ))
 (let (($x5051 (forall ((n (_ BitVec 6)) )(or (= (stack_s x_0 x_CALLER 2 n) (stack_s x_0 x_CALLER 1 n)) (bvsle (sc_s 1) n)))
 ))
 (let ((?x218 (sc_s 2)))
 (let (($x7493 (= ?x218 (bvadd (_ bv1 6) (sc_s 1)))))
 (let ((?x5000 (used_gas_s x_0 x_CALLER 2)))
 (let (($x6839 (or $x57 (not (bvsle (_ bv0 6) (bvadd (_ bv63 6) ?x72))) (not (= ((_ extract 6 6) (bvadd (_ bv1 7) (concat (_ bv0 1) ?x72))) (_ bv0 1))))))
 (let (($x10068 (= $x189 $x6839)))
 (let (($x8062 (forall ((w (_ BitVec 256)) )(let ((?x10188 (storage_s x_0 x_CALLER 0 w)))
 (let ((?x10998 (storage_s x_0 x_CALLER 1 w)))
 (= ?x10998 ?x10188))))
 ))
 (let (($x4581 (forall ((n (_ BitVec 6)) )(let ((?x72 (sc_s 0)))
 (let ((?x3834 (bvadd (_ bv63 6) ?x72)))
 (let (($x2363 (bvsle ?x3834 n)))
 (or $x2363 (= (stack_s x_0 x_CALLER 1 n) (stack_s x_0 x_CALLER 0 n)))))))
 ))
 (let ((?x154 (sc_s 1)))
 (let (($x3182 (= ?x154 (bvadd (_ bv1 6) ?x72))))
 (let ((?x3834 (bvadd (_ bv63 6) ?x72)))
 (let ((?x4824 (stack_s x_0 x_CALLER 0 ?x3834)))
 (let (($x6669 (forall ((w (_ BitVec 256)) )(let ((?x10188 (storage_s x_0 x_CALLER 0 w)))
 (= ?x10188 (_ bv0 256))))
 ))
 (let (($x9040 (= ?x9021 0)))
 (let (($x9420 (not $x57)))
 (let (($x10547 (= (stack_s x_0 x_CALLER 0 (_ bv0 6)) x_0)))
 (let (($x7315 (= ?x72 (_ bv1 6))))
 (and $x7315 $x10547 $x9420 $x9040 $x6669 (= (stack_s x_0 x_CALLER 1 (bvadd (_ bv63 6) ?x154)) ?x4824) (= (stack_s x_0 x_CALLER 1 ?x3834) ?x4824) (= (used_gas_s x_0 x_CALLER 1) (+ 3 ?x9021)) $x3182 $x4581 $x8062 $x10068 (= (stack_s x_0 x_CALLER 2 ?x154) x_CALLER) (= ?x5000 (+ 2 (used_gas_s x_0 x_CALLER 1))) $x7493 $x5051 $x6397 (= $x247 (or $x189 $x2257)) $x4709 $x850 (= ?x5436 (+ 3 ?x5000)) (= (sc_s 3) ?x218) $x3692 $x6818 $x9290 (= ?x6826 (+ 2 ?x5436)) (= ?x4305 (bvadd (_ bv63 6) (sc_s 3))) $x7422 $x5835 $x11438 (= (stack_s x_0 x_CALLER 5 (bvadd (_ bv63 6) ?x4319)) ?x7438) (= (stack_s x_0 x_CALLER 5 ?x2899) ?x7438) $x11052 (= ?x4319 (bvadd (_ bv1 6) ?x4305)) $x736 $x8239 (= $x11317 $x8049) (= (stack_t x_0 x_CALLER 1 ?x63) x_CALLER) (= (used_gas_t x_0 x_CALLER 1) (+ 2 ?x5103)) $x10389 $x2604 $x6109 $x6488 (= (stack_t x_0 x_CALLER 2 ?x7154) x_CALLER) $x6503 (= ?x6158 (bvadd (_ bv1 6) ?x7154)) $x11481 $x10194 (= $x8115 $x2723) $x73 $x2218 $x58 $x1767 $x9847 (not (and $x7598 $x10367 $x9465 $x10003)))))))))))))))))))))))))))))))))))))))))))))))))))))))))))))))))))))))))
 )
(check-sat)
(get-proof)
